min: 92 x1_1 + 50 x1_2 + 23 x1_3 + 13 x1_4 + 64 x1_5 + 60 x1_6 + 59 x2_1 + 49 x2_2 + 61 x2_3 + 92 x2_4 + 85 x2_5 + 19 x2_6 + 59 x3_1 + 54 x3_2 + 30 x3_3 + 46 x3_4 + 84 x3_5 + 28 x3_6 + 12 x4_1 + 49 x4_2 + 46 x4_3 + 28 x4_4 + 49 x4_5 + 83 x4_6 + 43 x5_1 + 39 x5_2 + 93 x5_3 + 18 x5_4 + 30 x5_5 + 66 x5_6 + 9 x6_1 + 97 x6_2 + 22 x6_3 + 47 x6_4 + 54 x6_5 + 38 x6_6;

x1_1 + x1_2 + x1_3 + x1_4 + x1_5 + x1_6 = 1346;
x2_1 + x2_2 + x2_3 + x2_4 + x2_5 + x2_6 = 1676;
x3_1 + x3_2 + x3_3 + x3_4 + x3_5 + x3_6 = 1669;
x4_1 + x4_2 + x4_3 + x4_4 + x4_5 + x4_6 = 4727;
x5_1 + x5_2 + x5_3 + x5_4 + x5_5 + x5_6 = 3443;
x6_1 + x6_2 + x6_3 + x6_4 + x6_5 + x6_6 = 355;

x1_1 + x2_1 + x3_1 + x4_1 + x5_1 + x6_1 = 5933;
x1_2 + x2_2 + x3_2 + x4_2 + x5_2 + x6_2 = 3947;
x1_3 + x2_3 + x3_3 + x4_3 + x5_3 + x6_3 = 825;
x1_4 + x2_4 + x3_4 + x4_4 + x5_4 + x6_4 = 1141;
x1_5 + x2_5 + x3_5 + x4_5 + x5_5 + x6_5 = 404;
x1_6 + x2_6 + x3_6 + x4_6 + x5_6 + x6_6 = 966;

int x1_1, x1_2, x1_3, x1_4, x1_5, x1_6, x2_1, x2_2, x2_3, x2_4, x2_5, x2_6, x3_1, x3_2, x3_3, x3_4, x3_5, x3_6, x4_1, x4_2, x4_3, x4_4, x4_5, x4_6, x5_1, x5_2, x5_3, x5_4, x5_5, x5_6, x6_1, x6_2, x6_3, x6_4, x6_5, x6_6;